40 40 40
50
7 26 27
17 17 17
18 2 21
10 34 23
31 32 19
23 28 19
20 9 1
5 4 23
32 1 15
9 3 35
24 5 7
3 18 28
5 17 13
19 32 12
2 28 15
26 22 23
17 14 29
12 7 4
22 33 14
25 2 10
6 30 7
35 16 21
28 28 14
21 9 32
15 29 13
32 18 23
24 3 11
21 9 9
21 20 15
34 8 14
9 27 16
35 1 19
2 20 32
1 7 19
3 2 22
18 33 9
4 28 35
17 10 34
4 17 6
24 32 33
5 2 9
14 34 33
24 30 14
28 5 10
4 9 1
5 28 27
33 15 28
23 15 13
4 16 19
16 6 34
